(set-logic QF_BV)
(declare-fun _substvar_1361_ () (_ BitVec 11))
(declare-fun _substvar_11606_ () Bool)
(declare-fun _substvar_12945_ () Bool)
(declare-fun _substvar_6400_ () (_ BitVec 11))
(declare-fun _substvar_14085_ () Bool)
(declare-fun _substvar_10841_ () (_ BitVec 11))
(declare-fun _substvar_5850_ () Bool)
(declare-fun _substvar_12982_ () Bool)
(declare-fun _substvar_5851_ () Bool)
(declare-fun _substvar_10282_ () Bool)
(declare-fun _substvar_4782_ () (_ BitVec 11))
(declare-fun _substvar_14170_ () Bool)
(declare-fun _substvar_4600_ () (_ BitVec 11))
(declare-fun _substvar_1767_ () (_ BitVec 11))
(declare-fun _substvar_5430_ () Bool)
(declare-fun _substvar_4014_ () (_ BitVec 11))
(declare-fun _substvar_9468_ () (_ BitVec 11))
(declare-fun _substvar_1737_ () (_ BitVec 11))
(declare-fun _substvar_11647_ () Bool)
(declare-fun _substvar_4765_ () (_ BitVec 11))
(declare-fun _substvar_6401_ () (_ BitVec 11))
(declare-fun _substvar_8083_ () (_ BitVec 11))
(declare-fun _substvar_5871_ () Bool)
(declare-fun _substvar_11618_ () Bool)
(declare-fun _substvar_12906_ () Bool)
(declare-fun _substvar_6544_ () (_ BitVec 11))
(declare-fun _substvar_7505_ () Bool)
(define-fun mask1 ((x (_ BitVec 11))) (_ BitVec 11) (_ bv1024 11))
(define-fun shlok ((x (_ BitVec 11)) (y (_ BitVec 11))) Bool (= (bvand x (mask1 (_ bv0 11))) (_ bv0 11)))
(assert (or false _substvar_14085_ false false false false false false false _substvar_5430_ false false false false false false false false false false false false false false false false false false false false false false false false false false false false false false false false false false false false false false false false false (and true true (= _substvar_1361_ _substvar_6401_)) false false false false false false false false false false false false false false false false false false false false false false false false false false false false false false false false false false false false false false false false false false false false false false false false false false false false false false false false false false false false (and true true (= _substvar_1361_ _substvar_6400_)) false false false false false false false false false false false))
(assert (or false false false false (and (bvugt _substvar_1767_ _substvar_4014_) true (= _substvar_1737_ (_ bv0 11))) false (and true true (bvugt _substvar_4765_ _substvar_10841_) (= _substvar_1737_ (_ bv0 11))) (and true true (bvugt _substvar_9468_ (_ bv15 11)) (= _substvar_1737_ (_ bv0 11))) false false false false false false false false (and true true true (= _substvar_1737_ (_ bv0 11))) false (and true true (bvugt (bvshl (_ bv15 11) _substvar_1767_) (bvshl (_ bv495 11) _substvar_4014_)) (= _substvar_1737_ (_ bv0 11))) (and true true _substvar_12945_ (= _substvar_1737_ (bvsub (bvshl (_ bv495 11) _substvar_1767_) (bvshl (_ bv15 11) _substvar_4014_)))) false false (and true true _substvar_11647_ (= _substvar_1737_ (_ bv0 11))) false (and true true (bvugt (bvshl (_ bv15 11) _substvar_1767_) (_ bv0 11)) (= _substvar_1737_ (bvsub (bvshl (_ bv15 11) _substvar_1767_) (_ bv0 11)))) false false false false false false (and true (bvugt (bvshl (_ bv1 11) _substvar_1767_) (bvshl (_ bv33 11) _substvar_4014_)) (= _substvar_1737_ (bvsub (_ bv1 11) (bvshl (_ bv33 11) _substvar_4014_)))) false false false false false false false false false false false false false false false false false false false false false false false false false false false false false false false false false false false (and true true _substvar_7505_ (= _substvar_1737_ (bvsub (bvshl (_ bv95 11) _substvar_1767_) (bvshl (_ bv495 11) _substvar_4014_)))) (and true true _substvar_5851_ (= _substvar_1737_ (_ bv0 11))) false false false false false false false false false false false false false false false false (and true true (bvugt (bvshl (_ bv293 11) _substvar_1767_) (bvshl (_ bv37 11) _substvar_4014_)) (= _substvar_1737_ (bvsub (bvshl (_ bv293 11) _substvar_1767_) (bvshl (_ bv37 11) _substvar_4014_)))) false (and true true (bvugt (bvshl (_ bv37 11) _substvar_1767_) (bvshl (_ bv495 11) _substvar_4014_)) (= _substvar_1737_ (bvsub (_ bv37 11) (bvshl (_ bv495 11) _substvar_4014_)))) (and true true _substvar_10282_ (= _substvar_1737_ (bvsub (bvshl (_ bv495 11) _substvar_1767_) (_ bv0 11)))) false false false false false false false (and true (shlok _substvar_1361_ _substvar_4014_) (bvugt (bvshl (_ bv37 11) _substvar_1767_) (bvshl _substvar_1361_ _substvar_4014_)) (= _substvar_1737_ (bvsub (bvshl (_ bv37 11) _substvar_1767_) (bvshl _substvar_1361_ _substvar_4014_)))) (and (shlok _substvar_1361_ _substvar_1767_) true (bvugt _substvar_1361_ _substvar_4600_) (= _substvar_1737_ (bvsub (bvshl _substvar_1361_ _substvar_1767_) (bvshl (_ bv37 11) _substvar_4014_)))) false (and true _substvar_11618_ (= _substvar_1737_ (_ bv0 11))) false false false false (and true true (bvugt (bvshl (_ bv293 11) _substvar_1767_) (bvshl (_ bv495 11) _substvar_4014_)) (= _substvar_1737_ (bvsub (_ bv293 11) (bvshl (_ bv495 11) _substvar_4014_)))) false false false false false false false false false false false false false false false false (and true true (bvugt (bvshl (_ bv495 11) _substvar_1767_) (bvshl (_ bv953 11) _substvar_4014_)) (= _substvar_1737_ (bvsub (_ bv495 11) (_ bv0 11)))) (and true true _substvar_12906_ (= _substvar_1737_ (bvsub (bvshl (_ bv953 11) _substvar_1767_) (bvshl (_ bv495 11) _substvar_4014_)))) false false false false false false false false false false false false false false false false false false false false false false false false false false false false false (and _substvar_11606_ (shlok _substvar_1361_ _substvar_1767_) (= _substvar_1737_ (_ bv0 11)))))
(assert (or false false false false (and (bvugt _substvar_4782_ _substvar_6544_) true (= _substvar_8083_ (_ bv0 11))) false false false false false false false false (and true true true (= _substvar_8083_ (_ bv0 11))) false false false false (and true true true (= _substvar_8083_ (bvsub (_ bv15 11) (bvshl (_ bv495 11) _substvar_6544_)))) (and true true _substvar_5850_ (= _substvar_8083_ (bvsub (bvshl (_ bv495 11) _substvar_4782_) (_ bv15 11)))) false false false false false false false false (and true true (bvugt (bvshl _substvar_1361_ _substvar_4782_) (_ bv0 11)) (= _substvar_8083_ (bvsub _substvar_1361_ (bvshl (_ bv15 11) _substvar_6544_)))) false false false false false false false false false false false false false false false false false false false false false false false false (and true true (bvugt (bvshl (_ bv33 11) _substvar_4782_) (_ bv0 11)) (= _substvar_8083_ (_ bv0 11))) false false false false false false false false false false false false false false false false false false false false false false false false false false false false false false false (and true (shlok _substvar_1737_ _substvar_6544_) _substvar_14170_ (= _substvar_8083_ (bvsub (bvshl (_ bv95 11) _substvar_4782_) _substvar_1737_))) (and (shlok _substvar_1737_ _substvar_4782_) true _substvar_12982_ (= _substvar_8083_ (_ bv0 11))) false false false false false false false false false false false false false (and true true true (= _substvar_8083_ (bvsub (_ bv0 11) (bvshl (_ bv37 11) _substvar_6544_)))) false false false false false false false false false false false false false false false false (and true true true (= _substvar_8083_ (bvsub (_ bv495 11) (_ bv293 11)))) false (and true true true (= _substvar_8083_ (bvsub (_ bv0 11) (_ bv953 11)))) (and true true true (= _substvar_8083_ (bvsub (_ bv953 11) (_ bv293 11)))) false false false false false false false false false false false false false false false false false false false false false false false false false false false false false false false false false false false (and true (shlok _substvar_1361_ _substvar_6544_) true (= _substvar_8083_ (bvsub (_ bv953 11) _substvar_1361_))) (and true true (bvugt _substvar_1361_ (_ bv953 11)) (= _substvar_8083_ (_ bv0 11))) false false false false false false false false false false false false false false false false false false (and true _substvar_5871_ (= _substvar_8083_ (_ bv0 11))) false false false false false false false (and true (shlok _substvar_1737_ _substvar_4782_) (= _substvar_8083_ (_ bv0 11)))))
(assert (or (= (_ bv799 11) _substvar_1361_) (= (_ bv799 11) _substvar_1737_) (= (_ bv799 11) _substvar_8083_)))
(assert (or (= (_ bv171 11) _substvar_1361_) (= (_ bv171 11) _substvar_1737_) (= (_ bv171 11) _substvar_8083_)))
(check-sat)
(exit)
